unknown
(model
; cardinality of BoundSet is 3
(declare-sort BoundSet 0)
; rep: @uc_BoundSet_0
; rep: @uc_BoundSet_1
; rep: @uc_BoundSet_2
; cardinality of UnboundSet is 1
(declare-sort UnboundSet 0)
(declare-fun groundTerm_4 () UnboundSet)
(define-fun IsYoung ((BOUND_VARIABLE_554 BoundSet)) Bool true)
(define-fun IsWearing ((BOUND_VARIABLE_561 BoundSet) (BOUND_VARIABLE_562 BoundSet)) Bool true)
(define-fun IsKicking ((BOUND_VARIABLE_561 BoundSet) (BOUND_VARIABLE_562 BoundSet)) Bool true)
(define-fun IsInvolvedIn ((BOUND_VARIABLE_561 BoundSet) (BOUND_VARIABLE_562 BoundSet)) Bool false)
)
unsat
(error "Cannot get model unless immediately preceded by SAT/NOT_ENTAILED or UNKNOWN response.")
